Optimal - objective value 6.00000000
     11 x_0_11                      1                   -0.12
     37 x_1_12                      1         5.55111512312578e-17
     65 x_2_15                      1                   0.155
     79 x_3_4                       1                    -0.2
    107 x_4_7                       1                       0
    129 x_5_4                       1         0.0400000000000002
    162 x_6_12                      1                   0.155
    190 x_7_15                      1                   0.635
    207 x_8_7                       1                       0
    248 x_9_23                      1                  -0.225
    257 x_10_7                      1                       0
    290 x_11_15                     1                    -0.2
    312 x_12_12                     1         -5.55111512312578e-17
    336 x_13_11                     1                  -0.265
    373 x_14_23                     1                       0
    382 x_15_7                      1                       0
    404 x_16_4                      1                       0
    436 x_17_11                     1                  -0.265
    462 x_18_12                     1                       0
    498 x_19_23                     1                       0
    512 x_20_12                     1         2.77555756156289e-17
    536 x_21_11                     1                       0
    554 x_22_4                      1                       0
    598 x_23_23                     1                   -0.31
    607 x_24_7                      1                    0.31
    629 y_4                         1                    0.45
    632 y_7                         1                    0.59
    636 y_11                        1                    0.69
    637 y_12                        1         -1.75541673428835e-16
    640 y_15                        1                       0
    648 y_23                        1                   0.515
